NAME : gaussian_missing_edges_with_de_seg1_seg2_seg3_random144.8574.tour
COMMENT : Length = 8574
COMMENT : Found by LKH [Keld Helsgaun] Fri Jul 12 16:44:49 2024
TYPE : TOUR
DIMENSION : 144
TOUR_SECTION
1
78
51
2
85
107
90
39
7
116
6
22
45
13
70
108
30
133
103
141
82
138
72
12
69
33
130
17
58
106
91
68
20
88
122
136
110
100
120
126
112
76
101
99
140
131
142
144
27
34
57
132
36
41
48
3
43
46
59
35
67
9
137
62
77
63
15
19
84
5
28
128
32
102
56
71
143
139
40
118
134
117
73
26
135
121
111
8
42
18
49
54
113
66
83
21
94
47
11
96
4
104
89
50
61
23
93
98
29
97
105
14
60
74
114
127
115
119
125
129
24
31
64
87
37
65
25
80
38
123
92
79
95
52
75
53
81
124
44
55
16
10
109
86
-1
EOF
